\ Model ProductMix
\ LP format - for model browsing. Use MPS format to capture full model detail.
Maximize
  350 Aqua-Spa + 300 Hydro-Lux
Subject To
 pumps: Aqua-Spa + Hydro-Lux <= 200
 labor: 9 Aqua-Spa + 6 Hydro-Lux <= 1566
 tubing: 12 Aqua-Spa + 16 Hydro-Lux <= 2880
Bounds
End
